\ LP format - for model browsing. Use MPS format to capture full model detail.
Minimize
  x_0_1 + x_0_2 + x_0_4 + x_0_5 + x_0_7 + x_0_8 + x_0_10 + x_0_11 + x_0_13
   + x_0_14 + x_0_16 + x_0_17 + x_0_19 + x_0_20 + x_0_22 + x_0_23 + x_0_26
   + x_0_27 + x_0_28 + x_0_29 + x_0_30 + x_0_31 + x_0_32 + x_0_33 + x_0_34
   + x_0_35 + x_0_36 + x_0_37 + x_0_38 + x_0_39 + x_0_40 + x_0_41 + x_0_42
   + x_0_43 + x_0_44 + x_0_45 + x_0_46 + x_0_47 + x_0_48 + x_0_49 + x_0_50
   + x_0_51 + x_0_52 + x_0_53 + x_0_55 + x_0_56 + x_0_58 + x_0_59 + x_0_60
   + x_0_61 + x_0_62 + x_0_63 + x_0_64 + x_0_65 + x_0_67 + x_0_68 + x_0_69
   + x_0_70 + x_0_71 + x_0_72 + x_0_73 + x_0_74 + x_0_75 + x_0_76 + x_0_77
   + x_0_78 + x_0_80 + x_0_81 + x_0_82 + x_0_83 + x_0_84 + x_0_85 + x_0_86
   + x_0_87 + x_0_89 + x_0_90 + x_0_92 + x_0_93 + x_0_94 + x_0_95 + x_0_97
   + x_0_98 + x_0_99 + x_0_100 + x_0_101 + x_0_102 + x_0_103 + x_0_104
   + x_0_105 + x_0_106 + x_0_107 + x_0_108 + x_0_109 + x_0_110 + x_0_111
   + x_0_112 + x_0_113 + x_0_114 + x_0_115 + x_0_116 + x_0_117 + x_0_118
   + x_0_119 + x_0_120 + x_0_122 + x_0_123 + x_0_125 + x_0_126 + x_0_127
   + x_0_128 + x_0_129 + x_0_130 + x_0_131 + x_0_132 + x_0_133 + x_0_134
   + x_0_135 + x_0_136 + x_0_138 + x_0_139 + x_0_140 + x_0_141 + x_0_142
   + x_0_143 + x_0_144 + x_0_145 + x_0_146 + x_0_147 + x_0_148 + x_0_149
   + x_0_150 + x_0_151 + x_0_152 + x_0_153 + x_0_155 + x_0_156 + x_0_158
   + x_0_159 + x_0_160 + x_0_161 + x_0_163 + x_0_164 + x_0_165 + x_0_166
   + x_0_167 + x_0_168 + x_0_169 + x_0_170 + x_0_171 + x_0_172 + x_0_173
   + x_0_174 + x_0_176 + x_0_177 + x_0_178 + x_0_179 + x_0_180 + x_0_181
   + x_0_182 + x_0_183 + x_0_184 + x_0_185 + x_0_186 + x_0_187 + x_0_189
   + x_0_190 + x_0_192 + x_0_193 + x_0_194 + x_0_195 + x_0_196 + x_0_197
   + x_0_198 + x_0_199 + x_0_201 + x_0_202 + x_0_203 + x_0_204 + x_0_205
   + x_0_206 + x_0_207 + x_0_208 + x_0_209 + x_0_210 + x_0_211 + x_0_212
   + x_0_213 + x_0_214 + x_0_215 + x_0_216 + x_0_217 + x_0_218 + x_0_219
   + x_0_220 + x_0_222 + x_0_223 + x_0_225 + x_0_226 + x_0_227 + x_0_228
   + x_0_230 + x_0_231 + x_0_232 + x_0_233 + x_0_235 + x_0_236 + x_0_237
   + x_0_238 + x_0_240 + x_0_241 + x_0_242 + x_0_243 + x_0_245 + x_0_246
   + x_0_247 + x_0_248 + x_0_250 + x_0_251 + x_0_252 + x_0_253 + x_0_255
   + x_0_256 + x_0_257 + x_0_258 + x_0_261 + x_0_262 + x_0_264 + x_0_265
   + x_0_267 + x_0_268 + x_0_270 + x_0_271 + x_0_273 + x_0_274 + x_0_276
   + x_0_277 + x_0_279 + x_0_280 + x_0_282 + x_0_283 + x_0_285 + x_0_286
   + x_0_287 + x_0_288 + x_0_289 + x_0_290 + x_0_291 + x_0_292 + x_0_293
   + x_0_294 + x_0_295 + x_0_296 + x_0_297 + x_0_298 + x_0_299 + x_0_300
   + x_0_301 + x_0_302 + x_0_303 + x_0_304 + x_0_305 + x_0_306 + x_0_307
   + x_0_308 + x_0_309 + x_0_310 + x_0_311 + x_0_312 + x_0_314 + x_0_315
   + x_0_317 + x_0_318 + x_0_319 + x_0_320 + x_0_321 + x_0_322 + x_0_323
   + x_0_324 + x_0_325 + x_0_326 + x_0_327 + x_0_328 + x_0_329 + x_0_330
   + x_0_331 + x_0_332 + x_0_333 + x_0_334 + x_0_335 + x_0_336 + x_0_337
   + x_0_338 + x_0_339 + x_0_340 + x_0_341 + x_0_342 + x_0_343 + x_0_344
   + x_0_346 + x_0_347 + x_0_349 + x_0_350 + x_0_351 + x_0_352 + x_0_353
   + x_0_354 + x_0_355 + x_0_356 + x_0_357 + x_0_358 + x_0_359 + x_0_360
   + x_0_361 + x_0_362 + x_0_363 + x_0_364 + x_0_365 + x_0_366 + x_0_367
   + x_0_368 + x_0_369 + x_0_370 + x_0_371 + x_0_372 + x_0_373 + x_0_374
   + x_0_375 + x_0_376 + x_0_378 + x_0_379 + x_0_381 + x_0_382 + x_0_383
   + x_0_384 + x_0_385 + x_0_386 + x_0_387 + x_0_388 + x_0_389 + x_0_390
   + x_0_391 + x_0_392 + x_0_393 + x_0_394 + x_0_395 + x_0_396 + x_0_397
   + x_0_398 + x_0_399 + x_0_400 + x_0_401 + x_0_402 + x_0_403 + x_0_404
   + x_0_405 + x_0_406 + x_0_407 + x_0_408 + x_0_410 + x_0_411 + x_0_413
   + x_0_414 + x_0_415 + x_0_416 + x_0_417 + x_0_418 + x_0_419 + x_0_420
   + x_0_421 + x_0_422 + x_0_423 + x_0_424 + x_0_425 + x_0_426 + x_0_427
   + x_0_428 + x_0_429 + x_0_430 + x_0_431 + x_0_432 + x_0_433 + x_0_434
   + x_0_435 + x_0_436 + x_0_437 + x_0_438 + x_0_439 + x_0_440 + x_0_442
   + x_0_443 + x_0_445 + x_0_446 + x_0_447 + x_0_448 + x_0_449 + x_0_450
   + x_0_451 + x_0_452 + x_0_453 + x_0_454 + x_0_455 + x_0_456 + x_0_457
   + x_0_458 + x_0_459 + x_0_460 + x_0_461 + x_0_462 + x_0_463 + x_0_464
   + x_0_465 + x_0_466 + x_0_467 + x_0_468 + x_0_469 + x_0_470 + x_0_471
   + x_0_472 + x_0_474 + x_0_475 + x_0_477 + x_0_478 + x_0_479 + x_0_480
   + x_0_482 + x_0_483 + x_0_484 + x_0_485 + x_0_487 + x_0_488 + x_0_489
   + x_0_490 + x_0_492 + x_0_493 + x_0_494 + x_0_495 + x_0_497 + x_0_498
   + x_0_499 + x_0_500 + x_0_502 + x_0_503 + x_0_504 + x_0_505 + x_0_507
   + x_0_508 + x_0_509 + x_0_510 + 2 x_0_512 + 2 x_0_513 + 2 x_0_514
   + 2 x_0_515
Subject To
 netOpen_0_0: x_0_25 + x_0_66 + x_0_79 + x_0_96 + x_0_137 + x_0_162
   + x_0_175 + x_0_200 = 8
 netOpen_0_1: - x_0_0 - x_0_3 - x_0_6 - x_0_9 - x_0_12 - x_0_15 - x_0_18
   - x_0_21 - x_0_24 - x_0_54 - x_0_57 - x_0_88 - x_0_91 - x_0_121
   - x_0_124 - x_0_154 - x_0_157 - x_0_188 - x_0_191 - x_0_221 - x_0_224
   - x_0_229 - x_0_234 - x_0_239 - x_0_244 - x_0_249 - x_0_254 - x_0_259
   - x_0_260 - x_0_263 - x_0_266 - x_0_269 - x_0_272 - x_0_275 - x_0_278
   - x_0_281 - x_0_284 - x_0_313 - x_0_316 - x_0_345 - x_0_348 - x_0_377
   - x_0_380 - x_0_409 - x_0_412 - x_0_441 - x_0_444 - x_0_473 - x_0_476
   - x_0_481 - x_0_486 - x_0_491 - x_0_496 - x_0_501 - x_0_506 - x_0_511
   = -8
 netOpen_0_2: x_0_0 + x_0_1 - x_0_2 + x_0_22 - x_0_23 = 0
 netOpen_0_3: - x_0_1 + x_0_2 + x_0_3 + x_0_4 - x_0_5 + x_0_26 - x_0_27
   = 0
 netOpen_0_4: - x_0_4 + x_0_5 + x_0_6 + x_0_7 - x_0_8 + x_0_30 - x_0_31
   = 0
 netOpen_0_5: - x_0_7 + x_0_8 + x_0_9 + x_0_10 - x_0_11 + x_0_34 - x_0_35
   = 0
 netOpen_0_6: - x_0_10 + x_0_11 + x_0_12 + x_0_13 - x_0_14 + x_0_38
   - x_0_39 = 0
 netOpen_0_7: - x_0_13 + x_0_14 + x_0_15 + x_0_16 - x_0_17 + x_0_42
   - x_0_43 = 0
 netOpen_0_8: - x_0_16 + x_0_17 + x_0_18 + x_0_19 - x_0_20 + x_0_46
   - x_0_47 = 0
 netOpen_0_9: - x_0_19 + x_0_20 + x_0_21 + x_0_50 - x_0_51 = 0
 netOpen_0_10: - x_0_22 + x_0_23 + x_0_24 + x_0_28 - x_0_29 + x_0_55
   - x_0_56 = 0
 netOpen_0_11: - x_0_25 - x_0_26 + x_0_27 - x_0_28 + x_0_29 + x_0_32
   - x_0_33 + x_0_58 - x_0_59 = 0
 netOpen_0_12: - x_0_30 + x_0_31 - x_0_32 + x_0_33 + x_0_36 - x_0_37
   + x_0_62 - x_0_63 = 0
 netOpen_0_13: - x_0_34 + x_0_35 - x_0_36 + x_0_37 + x_0_40 - x_0_41
   + x_0_67 - x_0_68 = 0
 netOpen_0_14: - x_0_38 + x_0_39 - x_0_40 + x_0_41 + x_0_44 - x_0_45
   + x_0_71 - x_0_72 = 0
 netOpen_0_15: - x_0_42 + x_0_43 - x_0_44 + x_0_45 + x_0_48 - x_0_49
   + x_0_75 - x_0_76 = 0
 netOpen_0_16: - x_0_46 + x_0_47 - x_0_48 + x_0_49 + x_0_52 - x_0_53
   + x_0_80 - x_0_81 = 0
 netOpen_0_17: - x_0_50 + x_0_51 - x_0_52 + x_0_53 + x_0_54 + x_0_84
   - x_0_85 = 0
 netOpen_0_18: - x_0_55 + x_0_56 + x_0_57 + x_0_60 - x_0_61 + x_0_89
   - x_0_90 = 0
 netOpen_0_19: - x_0_58 + x_0_59 - x_0_60 + x_0_61 + x_0_64 - x_0_65
   + x_0_92 - x_0_93 = 0
 netOpen_0_20: - x_0_62 + x_0_63 - x_0_64 + x_0_65 + x_0_69 - x_0_70
   + x_0_97 - x_0_98 = 0
 netOpen_0_21: - x_0_66 - x_0_67 + x_0_68 - x_0_69 + x_0_70 + x_0_73
   - x_0_74 + x_0_101 - x_0_102 = 0
 netOpen_0_22: - x_0_71 + x_0_72 - x_0_73 + x_0_74 + x_0_77 - x_0_78
   + x_0_105 - x_0_106 = 0
 netOpen_0_23: - x_0_75 + x_0_76 - x_0_77 + x_0_78 + x_0_82 - x_0_83
   + x_0_109 - x_0_110 = 0
 netOpen_0_24: - x_0_79 - x_0_80 + x_0_81 - x_0_82 + x_0_83 + x_0_86
   - x_0_87 + x_0_113 - x_0_114 = 0
 netOpen_0_25: - x_0_84 + x_0_85 - x_0_86 + x_0_87 + x_0_88 + x_0_117
   - x_0_118 = 0
 netOpen_0_26: - x_0_89 + x_0_90 + x_0_91 + x_0_94 - x_0_95 + x_0_122
   - x_0_123 = 0
 netOpen_0_27: - x_0_92 + x_0_93 - x_0_94 + x_0_95 + x_0_99 - x_0_100
   + x_0_125 - x_0_126 = 0
 netOpen_0_28: - x_0_96 - x_0_97 + x_0_98 - x_0_99 + x_0_100 + x_0_103
   - x_0_104 + x_0_129 - x_0_130 = 0
 netOpen_0_29: - x_0_101 + x_0_102 - x_0_103 + x_0_104 + x_0_107 - x_0_108
   + x_0_133 - x_0_134 = 0
 netOpen_0_30: - x_0_105 + x_0_106 - x_0_107 + x_0_108 + x_0_111 - x_0_112
   + x_0_138 - x_0_139 = 0
 netOpen_0_31: - x_0_109 + x_0_110 - x_0_111 + x_0_112 + x_0_115 - x_0_116
   + x_0_142 - x_0_143 = 0
 netOpen_0_32: - x_0_113 + x_0_114 - x_0_115 + x_0_116 + x_0_119 - x_0_120
   + x_0_146 - x_0_147 = 0
 netOpen_0_33: - x_0_117 + x_0_118 - x_0_119 + x_0_120 + x_0_121 + x_0_150
   - x_0_151 = 0
 netOpen_0_34: - x_0_122 + x_0_123 + x_0_124 + x_0_127 - x_0_128 + x_0_155
   - x_0_156 = 0
 netOpen_0_35: - x_0_125 + x_0_126 - x_0_127 + x_0_128 + x_0_131 - x_0_132
   + x_0_158 - x_0_159 = 0
 netOpen_0_36: - x_0_129 + x_0_130 - x_0_131 + x_0_132 + x_0_135 - x_0_136
   + x_0_163 - x_0_164 + x_0_512 = 0
 netOpen_0_37: - x_0_133 + x_0_134 - x_0_135 + x_0_136 + x_0_140 - x_0_141
   + x_0_167 - x_0_168 = 0
 netOpen_0_38: - x_0_137 - x_0_138 + x_0_139 - x_0_140 + x_0_141 + x_0_144
   - x_0_145 + x_0_171 - x_0_172 = 0
 netOpen_0_39: - x_0_142 + x_0_143 - x_0_144 + x_0_145 + x_0_148 - x_0_149
   + x_0_176 - x_0_177 = 0
 netOpen_0_40: - x_0_146 + x_0_147 - x_0_148 + x_0_149 + x_0_152 - x_0_153
   + x_0_180 - x_0_181 = 0
 netOpen_0_41: - x_0_150 + x_0_151 - x_0_152 + x_0_153 + x_0_154 + x_0_184
   - x_0_185 = 0
 netOpen_0_42: - x_0_155 + x_0_156 + x_0_157 + x_0_160 - x_0_161 + x_0_189
   - x_0_190 = 0
 netOpen_0_43: - x_0_158 + x_0_159 - x_0_160 + x_0_161 + x_0_165 - x_0_166
   + x_0_192 - x_0_193 + x_0_514 = 0
 netOpen_0_44: - x_0_162 - x_0_163 + x_0_164 - x_0_165 + x_0_166 + x_0_169
   - x_0_170 + x_0_196 - x_0_197 = 0
 netOpen_0_45: - x_0_167 + x_0_168 - x_0_169 + x_0_170 + x_0_173 - x_0_174
   + x_0_201 - x_0_202 + x_0_515 = 0
 netOpen_0_46: - x_0_171 + x_0_172 - x_0_173 + x_0_174 + x_0_178 - x_0_179
   + x_0_205 - x_0_206 = 0
 netOpen_0_47: - x_0_175 - x_0_176 + x_0_177 - x_0_178 + x_0_179 + x_0_182
   - x_0_183 + x_0_209 - x_0_210 = 0
 netOpen_0_48: - x_0_180 + x_0_181 - x_0_182 + x_0_183 + x_0_186 - x_0_187
   + x_0_213 - x_0_214 = 0
 netOpen_0_49: - x_0_184 + x_0_185 - x_0_186 + x_0_187 + x_0_188 + x_0_217
   - x_0_218 = 0
 netOpen_0_50: - x_0_189 + x_0_190 + x_0_191 + x_0_194 - x_0_195 + x_0_222
   - x_0_223 = 0
 netOpen_0_51: - x_0_192 + x_0_193 - x_0_194 + x_0_195 + x_0_198 - x_0_199
   + x_0_225 - x_0_226 = 0
 netOpen_0_52: - x_0_196 + x_0_197 - x_0_198 + x_0_199 + x_0_203 - x_0_204
   + x_0_230 - x_0_231 + x_0_513 = 0
 netOpen_0_53: - x_0_200 - x_0_201 + x_0_202 - x_0_203 + x_0_204 + x_0_207
   - x_0_208 + x_0_235 - x_0_236 = 0
 netOpen_0_54: - x_0_205 + x_0_206 - x_0_207 + x_0_208 + x_0_211 - x_0_212
   + x_0_240 - x_0_241 = 0
 netOpen_0_55: - x_0_209 + x_0_210 - x_0_211 + x_0_212 + x_0_215 - x_0_216
   + x_0_245 - x_0_246 = 0
 netOpen_0_56: - x_0_213 + x_0_214 - x_0_215 + x_0_216 + x_0_219 - x_0_220
   + x_0_250 - x_0_251 = 0
 netOpen_0_57: - x_0_217 + x_0_218 - x_0_219 + x_0_220 + x_0_221 + x_0_255
   - x_0_256 = 0
 netOpen_0_58: - x_0_222 + x_0_223 + x_0_224 + x_0_227 - x_0_228 = 0
 netOpen_0_59: - x_0_225 + x_0_226 - x_0_227 + x_0_228 + x_0_229 + x_0_232
   - x_0_233 = 0
 netOpen_0_60: - x_0_230 + x_0_231 - x_0_232 + x_0_233 + x_0_234 + x_0_237
   - x_0_238 = 0
 netOpen_0_61: - x_0_235 + x_0_236 - x_0_237 + x_0_238 + x_0_239 + x_0_242
   - x_0_243 = 0
 netOpen_0_62: - x_0_240 + x_0_241 - x_0_242 + x_0_243 + x_0_244 + x_0_247
   - x_0_248 = 0
 netOpen_0_63: - x_0_245 + x_0_246 - x_0_247 + x_0_248 + x_0_249 + x_0_252
   - x_0_253 = 0
 netOpen_0_64: - x_0_250 + x_0_251 - x_0_252 + x_0_253 + x_0_254 + x_0_257
   - x_0_258 = 0
 netOpen_0_65: - x_0_255 + x_0_256 - x_0_257 + x_0_258 + x_0_259 = 0
 netOpen_0_66: x_0_260 + x_0_261 - x_0_262 + x_0_282 - x_0_283 = 0
 netOpen_0_67: - x_0_261 + x_0_262 + x_0_263 + x_0_264 - x_0_265 + x_0_285
   - x_0_286 = 0
 netOpen_0_68: - x_0_264 + x_0_265 + x_0_266 + x_0_267 - x_0_268 + x_0_289
   - x_0_290 = 0
 netOpen_0_69: - x_0_267 + x_0_268 + x_0_269 + x_0_270 - x_0_271 + x_0_293
   - x_0_294 = 0
 netOpen_0_70: - x_0_270 + x_0_271 + x_0_272 + x_0_273 - x_0_274 + x_0_297
   - x_0_298 = 0
 netOpen_0_71: - x_0_273 + x_0_274 + x_0_275 + x_0_276 - x_0_277 + x_0_301
   - x_0_302 = 0
 netOpen_0_72: - x_0_276 + x_0_277 + x_0_278 + x_0_279 - x_0_280 + x_0_305
   - x_0_306 = 0
 netOpen_0_73: - x_0_279 + x_0_280 + x_0_281 + x_0_309 - x_0_310 = 0
 netOpen_0_74: - x_0_282 + x_0_283 + x_0_284 + x_0_287 - x_0_288 + x_0_314
   - x_0_315 = 0
 netOpen_0_75: - x_0_285 + x_0_286 - x_0_287 + x_0_288 + x_0_291 - x_0_292
   + x_0_317 - x_0_318 = 0
 netOpen_0_76: - x_0_289 + x_0_290 - x_0_291 + x_0_292 + x_0_295 - x_0_296
   + x_0_321 - x_0_322 = 0
 netOpen_0_77: - x_0_293 + x_0_294 - x_0_295 + x_0_296 + x_0_299 - x_0_300
   + x_0_325 - x_0_326 = 0
 netOpen_0_78: - x_0_297 + x_0_298 - x_0_299 + x_0_300 + x_0_303 - x_0_304
   + x_0_329 - x_0_330 = 0
 netOpen_0_79: - x_0_301 + x_0_302 - x_0_303 + x_0_304 + x_0_307 - x_0_308
   + x_0_333 - x_0_334 = 0
 netOpen_0_80: - x_0_305 + x_0_306 - x_0_307 + x_0_308 + x_0_311 - x_0_312
   + x_0_337 - x_0_338 = 0
 netOpen_0_81: - x_0_309 + x_0_310 - x_0_311 + x_0_312 + x_0_313 + x_0_341
   - x_0_342 = 0
 netOpen_0_82: - x_0_314 + x_0_315 + x_0_316 + x_0_319 - x_0_320 + x_0_346
   - x_0_347 = 0
 netOpen_0_83: - x_0_317 + x_0_318 - x_0_319 + x_0_320 + x_0_323 - x_0_324
   + x_0_349 - x_0_350 = 0
 netOpen_0_84: - x_0_321 + x_0_322 - x_0_323 + x_0_324 + x_0_327 - x_0_328
   + x_0_353 - x_0_354 = 0
 netOpen_0_85: - x_0_325 + x_0_326 - x_0_327 + x_0_328 + x_0_331 - x_0_332
   + x_0_357 - x_0_358 = 0
 netOpen_0_86: - x_0_329 + x_0_330 - x_0_331 + x_0_332 + x_0_335 - x_0_336
   + x_0_361 - x_0_362 = 0
 netOpen_0_87: - x_0_333 + x_0_334 - x_0_335 + x_0_336 + x_0_339 - x_0_340
   + x_0_365 - x_0_366 = 0
 netOpen_0_88: - x_0_337 + x_0_338 - x_0_339 + x_0_340 + x_0_343 - x_0_344
   + x_0_369 - x_0_370 = 0
 netOpen_0_89: - x_0_341 + x_0_342 - x_0_343 + x_0_344 + x_0_345 + x_0_373
   - x_0_374 = 0
 netOpen_0_90: - x_0_346 + x_0_347 + x_0_348 + x_0_351 - x_0_352 + x_0_378
   - x_0_379 = 0
 netOpen_0_91: - x_0_349 + x_0_350 - x_0_351 + x_0_352 + x_0_355 - x_0_356
   + x_0_381 - x_0_382 = 0
 netOpen_0_92: - x_0_353 + x_0_354 - x_0_355 + x_0_356 + x_0_359 - x_0_360
   + x_0_385 - x_0_386 = 0
 netOpen_0_93: - x_0_357 + x_0_358 - x_0_359 + x_0_360 + x_0_363 - x_0_364
   + x_0_389 - x_0_390 = 0
 netOpen_0_94: - x_0_361 + x_0_362 - x_0_363 + x_0_364 + x_0_367 - x_0_368
   + x_0_393 - x_0_394 = 0
 netOpen_0_95: - x_0_365 + x_0_366 - x_0_367 + x_0_368 + x_0_371 - x_0_372
   + x_0_397 - x_0_398 = 0
 netOpen_0_96: - x_0_369 + x_0_370 - x_0_371 + x_0_372 + x_0_375 - x_0_376
   + x_0_401 - x_0_402 = 0
 netOpen_0_97: - x_0_373 + x_0_374 - x_0_375 + x_0_376 + x_0_377 + x_0_405
   - x_0_406 = 0
 netOpen_0_98: - x_0_378 + x_0_379 + x_0_380 + x_0_383 - x_0_384 + x_0_410
   - x_0_411 = 0
 netOpen_0_99: - x_0_381 + x_0_382 - x_0_383 + x_0_384 + x_0_387 - x_0_388
   + x_0_413 - x_0_414 = 0
 netOpen_0_100: - x_0_385 + x_0_386 - x_0_387 + x_0_388 + x_0_391 - x_0_392
   + x_0_417 - x_0_418 - x_0_512 = 0
 netOpen_0_101: - x_0_389 + x_0_390 - x_0_391 + x_0_392 + x_0_395 - x_0_396
   + x_0_421 - x_0_422 = 0
 netOpen_0_102: - x_0_393 + x_0_394 - x_0_395 + x_0_396 + x_0_399 - x_0_400
   + x_0_425 - x_0_426 = 0
 netOpen_0_103: - x_0_397 + x_0_398 - x_0_399 + x_0_400 + x_0_403 - x_0_404
   + x_0_429 - x_0_430 = 0
 netOpen_0_104: - x_0_401 + x_0_402 - x_0_403 + x_0_404 + x_0_407 - x_0_408
   + x_0_433 - x_0_434 = 0
 netOpen_0_105: - x_0_405 + x_0_406 - x_0_407 + x_0_408 + x_0_409 + x_0_437
   - x_0_438 = 0
 netOpen_0_106: - x_0_410 + x_0_411 + x_0_412 + x_0_415 - x_0_416 + x_0_442
   - x_0_443 = 0
 netOpen_0_107: - x_0_413 + x_0_414 - x_0_415 + x_0_416 + x_0_419 - x_0_420
   + x_0_445 - x_0_446 - x_0_514 = 0
 netOpen_0_108: - x_0_417 + x_0_418 - x_0_419 + x_0_420 + x_0_423 - x_0_424
   + x_0_449 - x_0_450 = 0
 netOpen_0_109: - x_0_421 + x_0_422 - x_0_423 + x_0_424 + x_0_427 - x_0_428
   + x_0_453 - x_0_454 - x_0_515 = 0
 netOpen_0_110: - x_0_425 + x_0_426 - x_0_427 + x_0_428 + x_0_431 - x_0_432
   + x_0_457 - x_0_458 = 0
 netOpen_0_111: - x_0_429 + x_0_430 - x_0_431 + x_0_432 + x_0_435 - x_0_436
   + x_0_461 - x_0_462 = 0
 netOpen_0_112: - x_0_433 + x_0_434 - x_0_435 + x_0_436 + x_0_439 - x_0_440
   + x_0_465 - x_0_466 = 0
 netOpen_0_113: - x_0_437 + x_0_438 - x_0_439 + x_0_440 + x_0_441 + x_0_469
   - x_0_470 = 0
 netOpen_0_114: - x_0_442 + x_0_443 + x_0_444 + x_0_447 - x_0_448 + x_0_474
   - x_0_475 = 0
 netOpen_0_115: - x_0_445 + x_0_446 - x_0_447 + x_0_448 + x_0_451 - x_0_452
   + x_0_477 - x_0_478 = 0
 netOpen_0_116: - x_0_449 + x_0_450 - x_0_451 + x_0_452 + x_0_455 - x_0_456
   + x_0_482 - x_0_483 - x_0_513 = 0
 netOpen_0_117: - x_0_453 + x_0_454 - x_0_455 + x_0_456 + x_0_459 - x_0_460
   + x_0_487 - x_0_488 = 0
 netOpen_0_118: - x_0_457 + x_0_458 - x_0_459 + x_0_460 + x_0_463 - x_0_464
   + x_0_492 - x_0_493 = 0
 netOpen_0_119: - x_0_461 + x_0_462 - x_0_463 + x_0_464 + x_0_467 - x_0_468
   + x_0_497 - x_0_498 = 0
 netOpen_0_120: - x_0_465 + x_0_466 - x_0_467 + x_0_468 + x_0_471 - x_0_472
   + x_0_502 - x_0_503 = 0
 netOpen_0_121: - x_0_469 + x_0_470 - x_0_471 + x_0_472 + x_0_473 + x_0_507
   - x_0_508 = 0
 netOpen_0_122: - x_0_474 + x_0_475 + x_0_476 + x_0_479 - x_0_480 = 0
 netOpen_0_123: - x_0_477 + x_0_478 - x_0_479 + x_0_480 + x_0_481 + x_0_484
   - x_0_485 = 0
 netOpen_0_124: - x_0_482 + x_0_483 - x_0_484 + x_0_485 + x_0_486 + x_0_489
   - x_0_490 = 0
 netOpen_0_125: - x_0_487 + x_0_488 - x_0_489 + x_0_490 + x_0_491 + x_0_494
   - x_0_495 = 0
 netOpen_0_126: - x_0_492 + x_0_493 - x_0_494 + x_0_495 + x_0_496 + x_0_499
   - x_0_500 = 0
 netOpen_0_127: - x_0_497 + x_0_498 - x_0_499 + x_0_500 + x_0_501 + x_0_504
   - x_0_505 = 0
 netOpen_0_128: - x_0_502 + x_0_503 - x_0_504 + x_0_505 + x_0_506 + x_0_509
   - x_0_510 = 0
 netOpen_0_129: - x_0_507 + x_0_508 - x_0_509 + x_0_510 + x_0_511 = 0
 nodeShort_0: x_0_25 + x_0_66 + x_0_79 + x_0_96 + x_0_137 + x_0_162
   + x_0_175 + x_0_200 <= 8
 nodeShort_1: x_0_0 + x_0_3 + x_0_6 + x_0_9 + x_0_12 + x_0_15 + x_0_18
   + x_0_21 + x_0_24 + x_0_54 + x_0_57 + x_0_88 + x_0_91 + x_0_121
   + x_0_124 + x_0_154 + x_0_157 + x_0_188 + x_0_191 + x_0_221 + x_0_224
   + x_0_229 + x_0_234 + x_0_239 + x_0_244 + x_0_249 + x_0_254 + x_0_259
   + x_0_260 + x_0_263 + x_0_266 + x_0_269 + x_0_272 + x_0_275 + x_0_278
   + x_0_281 + x_0_284 + x_0_313 + x_0_316 + x_0_345 + x_0_348 + x_0_377
   + x_0_380 + x_0_409 + x_0_412 + x_0_441 + x_0_444 + x_0_473 + x_0_476
   + x_0_481 + x_0_486 + x_0_491 + x_0_496 + x_0_501 + x_0_506 + x_0_511
   <= 8
 nodeShort_2: x_0_0 + x_0_1 + x_0_2 + x_0_22 + x_0_23 <= 2
 nodeShort_3: x_0_1 + x_0_2 + x_0_3 + x_0_4 + x_0_5 + x_0_26 + x_0_27 <= 2
 nodeShort_4: x_0_4 + x_0_5 + x_0_6 + x_0_7 + x_0_8 + x_0_30 + x_0_31 <= 2
 nodeShort_5: x_0_7 + x_0_8 + x_0_9 + x_0_10 + x_0_11 + x_0_34 + x_0_35
   <= 2
 nodeShort_6: x_0_10 + x_0_11 + x_0_12 + x_0_13 + x_0_14 + x_0_38 + x_0_39
   <= 2
 nodeShort_7: x_0_13 + x_0_14 + x_0_15 + x_0_16 + x_0_17 + x_0_42 + x_0_43
   <= 2
 nodeShort_8: x_0_16 + x_0_17 + x_0_18 + x_0_19 + x_0_20 + x_0_46 + x_0_47
   <= 2
 nodeShort_9: x_0_19 + x_0_20 + x_0_21 + x_0_50 + x_0_51 <= 2
 nodeShort_10: x_0_22 + x_0_23 + x_0_24 + x_0_28 + x_0_29 + x_0_55 + x_0_56
   <= 2
 nodeShort_11: x_0_25 + x_0_26 + x_0_27 + x_0_28 + x_0_29 + x_0_32 + x_0_33
   + x_0_58 + x_0_59 <= 2
 nodeShort_12: x_0_30 + x_0_31 + x_0_32 + x_0_33 + x_0_36 + x_0_37 + x_0_62
   + x_0_63 <= 2
 nodeShort_13: x_0_34 + x_0_35 + x_0_36 + x_0_37 + x_0_40 + x_0_41 + x_0_67
   + x_0_68 <= 2
 nodeShort_14: x_0_38 + x_0_39 + x_0_40 + x_0_41 + x_0_44 + x_0_45 + x_0_71
   + x_0_72 <= 2
 nodeShort_15: x_0_42 + x_0_43 + x_0_44 + x_0_45 + x_0_48 + x_0_49 + x_0_75
   + x_0_76 <= 2
 nodeShort_16: x_0_46 + x_0_47 + x_0_48 + x_0_49 + x_0_52 + x_0_53 + x_0_80
   + x_0_81 <= 2
 nodeShort_17: x_0_50 + x_0_51 + x_0_52 + x_0_53 + x_0_54 + x_0_84 + x_0_85
   <= 2
 nodeShort_18: x_0_55 + x_0_56 + x_0_57 + x_0_60 + x_0_61 + x_0_89 + x_0_90
   <= 2
 nodeShort_19: x_0_58 + x_0_59 + x_0_60 + x_0_61 + x_0_64 + x_0_65 + x_0_92
   + x_0_93 <= 2
 nodeShort_20: x_0_62 + x_0_63 + x_0_64 + x_0_65 + x_0_69 + x_0_70 + x_0_97
   + x_0_98 <= 2
 nodeShort_21: x_0_66 + x_0_67 + x_0_68 + x_0_69 + x_0_70 + x_0_73 + x_0_74
   + x_0_101 + x_0_102 <= 2
 nodeShort_22: x_0_71 + x_0_72 + x_0_73 + x_0_74 + x_0_77 + x_0_78
   + x_0_105 + x_0_106 <= 2
 nodeShort_23: x_0_75 + x_0_76 + x_0_77 + x_0_78 + x_0_82 + x_0_83
   + x_0_109 + x_0_110 <= 2
 nodeShort_24: x_0_79 + x_0_80 + x_0_81 + x_0_82 + x_0_83 + x_0_86 + x_0_87
   + x_0_113 + x_0_114 <= 2
 nodeShort_25: x_0_84 + x_0_85 + x_0_86 + x_0_87 + x_0_88 + x_0_117
   + x_0_118 <= 2
 nodeShort_26: x_0_89 + x_0_90 + x_0_91 + x_0_94 + x_0_95 + x_0_122
   + x_0_123 <= 2
 nodeShort_27: x_0_92 + x_0_93 + x_0_94 + x_0_95 + x_0_99 + x_0_100
   + x_0_125 + x_0_126 <= 2
 nodeShort_28: x_0_96 + x_0_97 + x_0_98 + x_0_99 + x_0_100 + x_0_103
   + x_0_104 + x_0_129 + x_0_130 <= 2
 nodeShort_29: x_0_101 + x_0_102 + x_0_103 + x_0_104 + x_0_107 + x_0_108
   + x_0_133 + x_0_134 <= 2
 nodeShort_30: x_0_105 + x_0_106 + x_0_107 + x_0_108 + x_0_111 + x_0_112
   + x_0_138 + x_0_139 <= 2
 nodeShort_31: x_0_109 + x_0_110 + x_0_111 + x_0_112 + x_0_115 + x_0_116
   + x_0_142 + x_0_143 <= 2
 nodeShort_32: x_0_113 + x_0_114 + x_0_115 + x_0_116 + x_0_119 + x_0_120
   + x_0_146 + x_0_147 <= 2
 nodeShort_33: x_0_117 + x_0_118 + x_0_119 + x_0_120 + x_0_121 + x_0_150
   + x_0_151 <= 2
 nodeShort_34: x_0_122 + x_0_123 + x_0_124 + x_0_127 + x_0_128 + x_0_155
   + x_0_156 <= 2
 nodeShort_35: x_0_125 + x_0_126 + x_0_127 + x_0_128 + x_0_131 + x_0_132
   + x_0_158 + x_0_159 <= 2
 nodeShort_36: x_0_129 + x_0_130 + x_0_131 + x_0_132 + x_0_135 + x_0_136
   + x_0_163 + x_0_164 + x_0_512 <= 2
 nodeShort_37: x_0_133 + x_0_134 + x_0_135 + x_0_136 + x_0_140 + x_0_141
   + x_0_167 + x_0_168 <= 2
 nodeShort_38: x_0_137 + x_0_138 + x_0_139 + x_0_140 + x_0_141 + x_0_144
   + x_0_145 + x_0_171 + x_0_172 <= 2
 nodeShort_39: x_0_142 + x_0_143 + x_0_144 + x_0_145 + x_0_148 + x_0_149
   + x_0_176 + x_0_177 <= 2
 nodeShort_40: x_0_146 + x_0_147 + x_0_148 + x_0_149 + x_0_152 + x_0_153
   + x_0_180 + x_0_181 <= 2
 nodeShort_41: x_0_150 + x_0_151 + x_0_152 + x_0_153 + x_0_154 + x_0_184
   + x_0_185 <= 2
 nodeShort_42: x_0_155 + x_0_156 + x_0_157 + x_0_160 + x_0_161 + x_0_189
   + x_0_190 <= 2
 nodeShort_43: x_0_158 + x_0_159 + x_0_160 + x_0_161 + x_0_165 + x_0_166
   + x_0_192 + x_0_193 + x_0_514 <= 2
 nodeShort_44: x_0_162 + x_0_163 + x_0_164 + x_0_165 + x_0_166 + x_0_169
   + x_0_170 + x_0_196 + x_0_197 <= 2
 nodeShort_45: x_0_167 + x_0_168 + x_0_169 + x_0_170 + x_0_173 + x_0_174
   + x_0_201 + x_0_202 + x_0_515 <= 2
 nodeShort_46: x_0_171 + x_0_172 + x_0_173 + x_0_174 + x_0_178 + x_0_179
   + x_0_205 + x_0_206 <= 2
 nodeShort_47: x_0_175 + x_0_176 + x_0_177 + x_0_178 + x_0_179 + x_0_182
   + x_0_183 + x_0_209 + x_0_210 <= 2
 nodeShort_48: x_0_180 + x_0_181 + x_0_182 + x_0_183 + x_0_186 + x_0_187
   + x_0_213 + x_0_214 <= 2
 nodeShort_49: x_0_184 + x_0_185 + x_0_186 + x_0_187 + x_0_188 + x_0_217
   + x_0_218 <= 2
 nodeShort_50: x_0_189 + x_0_190 + x_0_191 + x_0_194 + x_0_195 + x_0_222
   + x_0_223 <= 2
 nodeShort_51: x_0_192 + x_0_193 + x_0_194 + x_0_195 + x_0_198 + x_0_199
   + x_0_225 + x_0_226 <= 2
 nodeShort_52: x_0_196 + x_0_197 + x_0_198 + x_0_199 + x_0_203 + x_0_204
   + x_0_230 + x_0_231 + x_0_513 <= 2
 nodeShort_53: x_0_200 + x_0_201 + x_0_202 + x_0_203 + x_0_204 + x_0_207
   + x_0_208 + x_0_235 + x_0_236 <= 2
 nodeShort_54: x_0_205 + x_0_206 + x_0_207 + x_0_208 + x_0_211 + x_0_212
   + x_0_240 + x_0_241 <= 2
 nodeShort_55: x_0_209 + x_0_210 + x_0_211 + x_0_212 + x_0_215 + x_0_216
   + x_0_245 + x_0_246 <= 2
 nodeShort_56: x_0_213 + x_0_214 + x_0_215 + x_0_216 + x_0_219 + x_0_220
   + x_0_250 + x_0_251 <= 2
 nodeShort_57: x_0_217 + x_0_218 + x_0_219 + x_0_220 + x_0_221 + x_0_255
   + x_0_256 <= 2
 nodeShort_58: x_0_222 + x_0_223 + x_0_224 + x_0_227 + x_0_228 <= 2
 nodeShort_59: x_0_225 + x_0_226 + x_0_227 + x_0_228 + x_0_229 + x_0_232
   + x_0_233 <= 2
 nodeShort_60: x_0_230 + x_0_231 + x_0_232 + x_0_233 + x_0_234 + x_0_237
   + x_0_238 <= 2
 nodeShort_61: x_0_235 + x_0_236 + x_0_237 + x_0_238 + x_0_239 + x_0_242
   + x_0_243 <= 2
 nodeShort_62: x_0_240 + x_0_241 + x_0_242 + x_0_243 + x_0_244 + x_0_247
   + x_0_248 <= 2
 nodeShort_63: x_0_245 + x_0_246 + x_0_247 + x_0_248 + x_0_249 + x_0_252
   + x_0_253 <= 2
 nodeShort_64: x_0_250 + x_0_251 + x_0_252 + x_0_253 + x_0_254 + x_0_257
   + x_0_258 <= 2
 nodeShort_65: x_0_255 + x_0_256 + x_0_257 + x_0_258 + x_0_259 <= 2
 nodeShort_66: x_0_260 + x_0_261 + x_0_262 + x_0_282 + x_0_283 <= 2
 nodeShort_67: x_0_261 + x_0_262 + x_0_263 + x_0_264 + x_0_265 + x_0_285
   + x_0_286 <= 2
 nodeShort_68: x_0_264 + x_0_265 + x_0_266 + x_0_267 + x_0_268 + x_0_289
   + x_0_290 <= 2
 nodeShort_69: x_0_267 + x_0_268 + x_0_269 + x_0_270 + x_0_271 + x_0_293
   + x_0_294 <= 2
 nodeShort_70: x_0_270 + x_0_271 + x_0_272 + x_0_273 + x_0_274 + x_0_297
   + x_0_298 <= 2
 nodeShort_71: x_0_273 + x_0_274 + x_0_275 + x_0_276 + x_0_277 + x_0_301
   + x_0_302 <= 2
 nodeShort_72: x_0_276 + x_0_277 + x_0_278 + x_0_279 + x_0_280 + x_0_305
   + x_0_306 <= 2
 nodeShort_73: x_0_279 + x_0_280 + x_0_281 + x_0_309 + x_0_310 <= 2
 nodeShort_74: x_0_282 + x_0_283 + x_0_284 + x_0_287 + x_0_288 + x_0_314
   + x_0_315 <= 2
 nodeShort_75: x_0_285 + x_0_286 + x_0_287 + x_0_288 + x_0_291 + x_0_292
   + x_0_317 + x_0_318 <= 2
 nodeShort_76: x_0_289 + x_0_290 + x_0_291 + x_0_292 + x_0_295 + x_0_296
   + x_0_321 + x_0_322 <= 2
 nodeShort_77: x_0_293 + x_0_294 + x_0_295 + x_0_296 + x_0_299 + x_0_300
   + x_0_325 + x_0_326 <= 2
 nodeShort_78: x_0_297 + x_0_298 + x_0_299 + x_0_300 + x_0_303 + x_0_304
   + x_0_329 + x_0_330 <= 2
 nodeShort_79: x_0_301 + x_0_302 + x_0_303 + x_0_304 + x_0_307 + x_0_308
   + x_0_333 + x_0_334 <= 2
 nodeShort_80: x_0_305 + x_0_306 + x_0_307 + x_0_308 + x_0_311 + x_0_312
   + x_0_337 + x_0_338 <= 2
 nodeShort_81: x_0_309 + x_0_310 + x_0_311 + x_0_312 + x_0_313 + x_0_341
   + x_0_342 <= 2
 nodeShort_82: x_0_314 + x_0_315 + x_0_316 + x_0_319 + x_0_320 + x_0_346
   + x_0_347 <= 2
 nodeShort_83: x_0_317 + x_0_318 + x_0_319 + x_0_320 + x_0_323 + x_0_324
   + x_0_349 + x_0_350 <= 2
 nodeShort_84: x_0_321 + x_0_322 + x_0_323 + x_0_324 + x_0_327 + x_0_328
   + x_0_353 + x_0_354 <= 2
 nodeShort_85: x_0_325 + x_0_326 + x_0_327 + x_0_328 + x_0_331 + x_0_332
   + x_0_357 + x_0_358 <= 2
 nodeShort_86: x_0_329 + x_0_330 + x_0_331 + x_0_332 + x_0_335 + x_0_336
   + x_0_361 + x_0_362 <= 2
 nodeShort_87: x_0_333 + x_0_334 + x_0_335 + x_0_336 + x_0_339 + x_0_340
   + x_0_365 + x_0_366 <= 2
 nodeShort_88: x_0_337 + x_0_338 + x_0_339 + x_0_340 + x_0_343 + x_0_344
   + x_0_369 + x_0_370 <= 2
 nodeShort_89: x_0_341 + x_0_342 + x_0_343 + x_0_344 + x_0_345 + x_0_373
   + x_0_374 <= 2
 nodeShort_90: x_0_346 + x_0_347 + x_0_348 + x_0_351 + x_0_352 + x_0_378
   + x_0_379 <= 2
 nodeShort_91: x_0_349 + x_0_350 + x_0_351 + x_0_352 + x_0_355 + x_0_356
   + x_0_381 + x_0_382 <= 2
 nodeShort_92: x_0_353 + x_0_354 + x_0_355 + x_0_356 + x_0_359 + x_0_360
   + x_0_385 + x_0_386 <= 2
 nodeShort_93: x_0_357 + x_0_358 + x_0_359 + x_0_360 + x_0_363 + x_0_364
   + x_0_389 + x_0_390 <= 2
 nodeShort_94: x_0_361 + x_0_362 + x_0_363 + x_0_364 + x_0_367 + x_0_368
   + x_0_393 + x_0_394 <= 2
 nodeShort_95: x_0_365 + x_0_366 + x_0_367 + x_0_368 + x_0_371 + x_0_372
   + x_0_397 + x_0_398 <= 2
 nodeShort_96: x_0_369 + x_0_370 + x_0_371 + x_0_372 + x_0_375 + x_0_376
   + x_0_401 + x_0_402 <= 2
 nodeShort_97: x_0_373 + x_0_374 + x_0_375 + x_0_376 + x_0_377 + x_0_405
   + x_0_406 <= 2
 nodeShort_98: x_0_378 + x_0_379 + x_0_380 + x_0_383 + x_0_384 + x_0_410
   + x_0_411 <= 2
 nodeShort_99: x_0_381 + x_0_382 + x_0_383 + x_0_384 + x_0_387 + x_0_388
   + x_0_413 + x_0_414 <= 2
 nodeShort_100: x_0_385 + x_0_386 + x_0_387 + x_0_388 + x_0_391 + x_0_392
   + x_0_417 + x_0_418 + x_0_512 <= 2
 nodeShort_101: x_0_389 + x_0_390 + x_0_391 + x_0_392 + x_0_395 + x_0_396
   + x_0_421 + x_0_422 <= 2
 nodeShort_102: x_0_393 + x_0_394 + x_0_395 + x_0_396 + x_0_399 + x_0_400
   + x_0_425 + x_0_426 <= 2
 nodeShort_103: x_0_397 + x_0_398 + x_0_399 + x_0_400 + x_0_403 + x_0_404
   + x_0_429 + x_0_430 <= 2
 nodeShort_104: x_0_401 + x_0_402 + x_0_403 + x_0_404 + x_0_407 + x_0_408
   + x_0_433 + x_0_434 <= 2
 nodeShort_105: x_0_405 + x_0_406 + x_0_407 + x_0_408 + x_0_409 + x_0_437
   + x_0_438 <= 2
 nodeShort_106: x_0_410 + x_0_411 + x_0_412 + x_0_415 + x_0_416 + x_0_442
   + x_0_443 <= 2
 nodeShort_107: x_0_413 + x_0_414 + x_0_415 + x_0_416 + x_0_419 + x_0_420
   + x_0_445 + x_0_446 + x_0_514 <= 2
 nodeShort_108: x_0_417 + x_0_418 + x_0_419 + x_0_420 + x_0_423 + x_0_424
   + x_0_449 + x_0_450 <= 2
 nodeShort_109: x_0_421 + x_0_422 + x_0_423 + x_0_424 + x_0_427 + x_0_428
   + x_0_453 + x_0_454 + x_0_515 <= 2
 nodeShort_110: x_0_425 + x_0_426 + x_0_427 + x_0_428 + x_0_431 + x_0_432
   + x_0_457 + x_0_458 <= 2
 nodeShort_111: x_0_429 + x_0_430 + x_0_431 + x_0_432 + x_0_435 + x_0_436
   + x_0_461 + x_0_462 <= 2
 nodeShort_112: x_0_433 + x_0_434 + x_0_435 + x_0_436 + x_0_439 + x_0_440
   + x_0_465 + x_0_466 <= 2
 nodeShort_113: x_0_437 + x_0_438 + x_0_439 + x_0_440 + x_0_441 + x_0_469
   + x_0_470 <= 2
 nodeShort_114: x_0_442 + x_0_443 + x_0_444 + x_0_447 + x_0_448 + x_0_474
   + x_0_475 <= 2
 nodeShort_115: x_0_445 + x_0_446 + x_0_447 + x_0_448 + x_0_451 + x_0_452
   + x_0_477 + x_0_478 <= 2
 nodeShort_116: x_0_449 + x_0_450 + x_0_451 + x_0_452 + x_0_455 + x_0_456
   + x_0_482 + x_0_483 + x_0_513 <= 2
 nodeShort_117: x_0_453 + x_0_454 + x_0_455 + x_0_456 + x_0_459 + x_0_460
   + x_0_487 + x_0_488 <= 2
 nodeShort_118: x_0_457 + x_0_458 + x_0_459 + x_0_460 + x_0_463 + x_0_464
   + x_0_492 + x_0_493 <= 2
 nodeShort_119: x_0_461 + x_0_462 + x_0_463 + x_0_464 + x_0_467 + x_0_468
   + x_0_497 + x_0_498 <= 2
 nodeShort_120: x_0_465 + x_0_466 + x_0_467 + x_0_468 + x_0_471 + x_0_472
   + x_0_502 + x_0_503 <= 2
 nodeShort_121: x_0_469 + x_0_470 + x_0_471 + x_0_472 + x_0_473 + x_0_507
   + x_0_508 <= 2
 nodeShort_122: x_0_474 + x_0_475 + x_0_476 + x_0_479 + x_0_480 <= 2
 nodeShort_123: x_0_477 + x_0_478 + x_0_479 + x_0_480 + x_0_481 + x_0_484
   + x_0_485 <= 2
 nodeShort_124: x_0_482 + x_0_483 + x_0_484 + x_0_485 + x_0_486 + x_0_489
   + x_0_490 <= 2
 nodeShort_125: x_0_487 + x_0_488 + x_0_489 + x_0_490 + x_0_491 + x_0_494
   + x_0_495 <= 2
 nodeShort_126: x_0_492 + x_0_493 + x_0_494 + x_0_495 + x_0_496 + x_0_499
   + x_0_500 <= 2
 nodeShort_127: x_0_497 + x_0_498 + x_0_499 + x_0_500 + x_0_501 + x_0_504
   + x_0_505 <= 2
 nodeShort_128: x_0_502 + x_0_503 + x_0_504 + x_0_505 + x_0_506 + x_0_509
   + x_0_510 <= 2
 nodeShort_129: x_0_507 + x_0_508 + x_0_509 + x_0_510 + x_0_511 <= 2
Bounds
Binaries
 x_0_0 x_0_1 x_0_2 x_0_3 x_0_4 x_0_5 x_0_6 x_0_7 x_0_8 x_0_9 x_0_10 x_0_11
 x_0_12 x_0_13 x_0_14 x_0_15 x_0_16 x_0_17 x_0_18 x_0_19 x_0_20 x_0_21
 x_0_22 x_0_23 x_0_24 x_0_25 x_0_26 x_0_27 x_0_28 x_0_29 x_0_30 x_0_31
 x_0_32 x_0_33 x_0_34 x_0_35 x_0_36 x_0_37 x_0_38 x_0_39 x_0_40 x_0_41
 x_0_42 x_0_43 x_0_44 x_0_45 x_0_46 x_0_47 x_0_48 x_0_49 x_0_50 x_0_51
 x_0_52 x_0_53 x_0_54 x_0_55 x_0_56 x_0_57 x_0_58 x_0_59 x_0_60 x_0_61
 x_0_62 x_0_63 x_0_64 x_0_65 x_0_66 x_0_67 x_0_68 x_0_69 x_0_70 x_0_71
 x_0_72 x_0_73 x_0_74 x_0_75 x_0_76 x_0_77 x_0_78 x_0_79 x_0_80 x_0_81
 x_0_82 x_0_83 x_0_84 x_0_85 x_0_86 x_0_87 x_0_88 x_0_89 x_0_90 x_0_91
 x_0_92 x_0_93 x_0_94 x_0_95 x_0_96 x_0_97 x_0_98 x_0_99 x_0_100 x_0_101
 x_0_102 x_0_103 x_0_104 x_0_105 x_0_106 x_0_107 x_0_108 x_0_109 x_0_110
 x_0_111 x_0_112 x_0_113 x_0_114 x_0_115 x_0_116 x_0_117 x_0_118 x_0_119
 x_0_120 x_0_121 x_0_122 x_0_123 x_0_124 x_0_125 x_0_126 x_0_127 x_0_128
 x_0_129 x_0_130 x_0_131 x_0_132 x_0_133 x_0_134 x_0_135 x_0_136 x_0_137
 x_0_138 x_0_139 x_0_140 x_0_141 x_0_142 x_0_143 x_0_144 x_0_145 x_0_146
 x_0_147 x_0_148 x_0_149 x_0_150 x_0_151 x_0_152 x_0_153 x_0_154 x_0_155
 x_0_156 x_0_157 x_0_158 x_0_159 x_0_160 x_0_161 x_0_162 x_0_163 x_0_164
 x_0_165 x_0_166 x_0_167 x_0_168 x_0_169 x_0_170 x_0_171 x_0_172 x_0_173
 x_0_174 x_0_175 x_0_176 x_0_177 x_0_178 x_0_179 x_0_180 x_0_181 x_0_182
 x_0_183 x_0_184 x_0_185 x_0_186 x_0_187 x_0_188 x_0_189 x_0_190 x_0_191
 x_0_192 x_0_193 x_0_194 x_0_195 x_0_196 x_0_197 x_0_198 x_0_199 x_0_200
 x_0_201 x_0_202 x_0_203 x_0_204 x_0_205 x_0_206 x_0_207 x_0_208 x_0_209
 x_0_210 x_0_211 x_0_212 x_0_213 x_0_214 x_0_215 x_0_216 x_0_217 x_0_218
 x_0_219 x_0_220 x_0_221 x_0_222 x_0_223 x_0_224 x_0_225 x_0_226 x_0_227
 x_0_228 x_0_229 x_0_230 x_0_231 x_0_232 x_0_233 x_0_234 x_0_235 x_0_236
 x_0_237 x_0_238 x_0_239 x_0_240 x_0_241 x_0_242 x_0_243 x_0_244 x_0_245
 x_0_246 x_0_247 x_0_248 x_0_249 x_0_250 x_0_251 x_0_252 x_0_253 x_0_254
 x_0_255 x_0_256 x_0_257 x_0_258 x_0_259 x_0_260 x_0_261 x_0_262 x_0_263
 x_0_264 x_0_265 x_0_266 x_0_267 x_0_268 x_0_269 x_0_270 x_0_271 x_0_272
 x_0_273 x_0_274 x_0_275 x_0_276 x_0_277 x_0_278 x_0_279 x_0_280 x_0_281
 x_0_282 x_0_283 x_0_284 x_0_285 x_0_286 x_0_287 x_0_288 x_0_289 x_0_290
 x_0_291 x_0_292 x_0_293 x_0_294 x_0_295 x_0_296 x_0_297 x_0_298 x_0_299
 x_0_300 x_0_301 x_0_302 x_0_303 x_0_304 x_0_305 x_0_306 x_0_307 x_0_308
 x_0_309 x_0_310 x_0_311 x_0_312 x_0_313 x_0_314 x_0_315 x_0_316 x_0_317
 x_0_318 x_0_319 x_0_320 x_0_321 x_0_322 x_0_323 x_0_324 x_0_325 x_0_326
 x_0_327 x_0_328 x_0_329 x_0_330 x_0_331 x_0_332 x_0_333 x_0_334 x_0_335
 x_0_336 x_0_337 x_0_338 x_0_339 x_0_340 x_0_341 x_0_342 x_0_343 x_0_344
 x_0_345 x_0_346 x_0_347 x_0_348 x_0_349 x_0_350 x_0_351 x_0_352 x_0_353
 x_0_354 x_0_355 x_0_356 x_0_357 x_0_358 x_0_359 x_0_360 x_0_361 x_0_362
 x_0_363 x_0_364 x_0_365 x_0_366 x_0_367 x_0_368 x_0_369 x_0_370 x_0_371
 x_0_372 x_0_373 x_0_374 x_0_375 x_0_376 x_0_377 x_0_378 x_0_379 x_0_380
 x_0_381 x_0_382 x_0_383 x_0_384 x_0_385 x_0_386 x_0_387 x_0_388 x_0_389
 x_0_390 x_0_391 x_0_392 x_0_393 x_0_394 x_0_395 x_0_396 x_0_397 x_0_398
 x_0_399 x_0_400 x_0_401 x_0_402 x_0_403 x_0_404 x_0_405 x_0_406 x_0_407
 x_0_408 x_0_409 x_0_410 x_0_411 x_0_412 x_0_413 x_0_414 x_0_415 x_0_416
 x_0_417 x_0_418 x_0_419 x_0_420 x_0_421 x_0_422 x_0_423 x_0_424 x_0_425
 x_0_426 x_0_427 x_0_428 x_0_429 x_0_430 x_0_431 x_0_432 x_0_433 x_0_434
 x_0_435 x_0_436 x_0_437 x_0_438 x_0_439 x_0_440 x_0_441 x_0_442 x_0_443
 x_0_444 x_0_445 x_0_446 x_0_447 x_0_448 x_0_449 x_0_450 x_0_451 x_0_452
 x_0_453 x_0_454 x_0_455 x_0_456 x_0_457 x_0_458 x_0_459 x_0_460 x_0_461
 x_0_462 x_0_463 x_0_464 x_0_465 x_0_466 x_0_467 x_0_468 x_0_469 x_0_470
 x_0_471 x_0_472 x_0_473 x_0_474 x_0_475 x_0_476 x_0_477 x_0_478 x_0_479
 x_0_480 x_0_481 x_0_482 x_0_483 x_0_484 x_0_485 x_0_486 x_0_487 x_0_488
 x_0_489 x_0_490 x_0_491 x_0_492 x_0_493 x_0_494 x_0_495 x_0_496 x_0_497
 x_0_498 x_0_499 x_0_500 x_0_501 x_0_502 x_0_503 x_0_504 x_0_505 x_0_506
 x_0_507 x_0_508 x_0_509 x_0_510 x_0_511 x_0_512 x_0_513 x_0_514 x_0_515
End
